Cost: 378
0-11-5-9-30-10-15-37-17-12-0
0-22-28-3-20-29-21-16-2-32-0
0-27-1-8-26-7-23-24-6-0
0-18-4-19-13-25-14-0
Cost: 378
0-11-5-9-30-10-15-37-17-12-0
0-22-28-3-20-29-21-16-2-32-0
0-27-1-8-26-7-23-24-6-0
0-18-4-19-13-25-14-0
Cost: 378
0-11-5-9-30-10-15-37-17-12-0
0-22-28-3-20-29-21-16-2-32-0
0-27-1-8-26-7-23-24-6-0
0-18-4-19-13-25-14-0
Cost: 378
0-11-5-9-30-10-15-37-17-12-0
0-22-28-3-20-29-21-16-2-32-0
0-27-1-8-26-7-23-24-6-0
0-18-4-19-13-25-14-0
Cost: 378
0-11-5-9-30-10-15-37-17-12-0
0-22-28-3-20-29-21-16-2-32-0
0-27-1-8-26-7-23-24-6-0
0-18-4-19-13-25-14-0
Cost: 378
0-11-5-9-30-10-15-37-17-12-0
0-22-28-3-20-29-21-16-2-32-0
0-27-1-8-26-7-23-24-6-0
0-18-4-19-13-25-14-0
Cost: 378
0-11-5-9-30-10-15-37-17-12-0
0-22-28-3-20-29-21-16-2-32-0
0-27-1-8-26-7-23-24-6-0
0-18-4-19-13-25-14-0
Cost: 378
0-11-5-9-30-10-15-37-17-12-0
0-22-28-3-20-29-21-16-2-32-0
0-27-1-8-26-7-23-24-6-0
0-18-4-19-13-25-14-0
Cost: 378
0-11-5-9-30-10-15-37-17-12-0
0-22-28-3-20-29-21-16-2-32-0
0-27-1-8-26-7-23-24-6-0
0-18-4-19-13-25-14-0
Cost: 378
0-11-5-9-30-10-15-37-17-12-0
0-22-28-3-20-29-21-16-2-32-0
0-27-1-8-26-7-23-24-6-0
0-18-4-19-13-25-14-0
Cost: 378
0-27-1-8-26-7-23-24-6-0
0-12-17-37-15-10-30-9-5-11-0
0-14-25-13-19-4-18-0
0-22-28-3-20-29-21-16-2-32-0
Cost: 378
0-27-1-8-26-7-23-24-6-0
0-12-17-37-15-10-30-9-5-11-0
0-14-25-13-19-4-18-0
0-22-28-3-20-29-21-16-2-32-0
Cost: 378
0-27-1-8-26-7-23-24-6-0
0-12-17-37-15-10-30-9-5-11-0
0-14-25-13-19-4-18-0
0-22-28-3-20-29-21-16-2-32-0
Cost: 378
0-27-1-8-26-7-23-24-6-0
0-12-17-37-15-10-30-9-5-11-0
0-14-25-13-19-4-18-0
0-22-28-3-20-29-21-16-2-32-0
Cost: 378
0-27-1-8-26-7-23-24-6-0
0-12-17-37-15-10-30-9-5-11-0
0-14-25-13-19-4-18-0
0-22-28-3-20-29-21-16-2-32-0
Cost: 378
0-27-1-8-26-7-23-24-6-0
0-12-17-37-15-10-30-9-5-11-0
0-14-25-13-19-4-18-0
0-22-28-3-20-29-21-16-2-32-0
Cost: 378
0-27-1-8-26-7-23-24-6-0
0-12-17-37-15-10-30-9-5-11-0
0-14-25-13-19-4-18-0
0-22-28-3-20-29-21-16-2-32-0
Cost: 378
0-27-1-8-26-7-23-24-6-0
0-12-17-37-15-10-30-9-5-11-0
0-14-25-13-19-4-18-0
0-22-28-3-20-29-21-16-2-32-0
Cost: 378
0-27-1-8-26-7-23-24-6-0
0-12-17-37-15-10-30-9-5-11-0
0-14-25-13-19-4-18-0
0-22-28-3-20-29-21-16-2-32-0
Cost: 378
0-27-1-8-26-7-23-24-6-0
0-12-17-37-15-10-30-9-5-11-0
0-14-25-13-19-4-18-0
0-22-28-3-20-29-21-16-2-32-0
Cost: 378
0-27-1-8-26-7-23-24-6-0
0-12-17-37-15-10-30-9-5-11-0
0-14-25-13-19-4-18-0
0-22-28-3-20-29-21-16-2-32-0
Cost: 378
0-27-1-8-26-7-23-24-6-0
0-12-17-37-15-10-30-9-5-11-0
0-14-25-13-19-4-18-0
0-22-28-3-20-29-21-16-2-32-0
Cost: 378
0-18-4-19-13-25-14-0
0-12-17-37-15-10-30-9-5-11-0
0-32-2-16-21-29-20-3-28-22-0
0-6-24-23-7-26-8-1-27-0
Cost: 378
0-27-1-8-26-7-23-24-6-0
0-12-17-37-15-10-30-9-5-11-0
0-14-25-13-19-4-18-0
0-22-28-3-20-29-21-16-2-32-0
Cost: 378
0-27-1-8-26-7-23-24-6-0
0-12-17-37-15-10-30-9-5-11-0
0-14-25-13-19-4-18-0
0-22-28-3-20-29-21-16-2-32-0
Cost: 378
0-27-1-8-26-7-23-24-6-0
0-12-17-37-15-10-30-9-5-11-0
0-14-25-13-19-4-18-0
0-22-28-3-20-29-21-16-2-32-0
Cost: 378
0-22-28-3-20-29-21-16-2-32-0
0-6-24-23-7-26-8-1-27-0
0-18-4-19-13-25-14-0
0-12-17-37-15-10-30-9-5-11-0
Cost: 378
0-27-1-8-26-7-23-24-6-0
0-32-2-16-21-29-20-3-28-22-0
0-11-5-9-30-10-15-37-17-12-0
0-14-25-13-19-4-18-0
Cost: 378
0-1-22-28-3-20-29-21-16-2-0
0-5-15-10-30-9-38-11-32-0
0-6-14-24-23-7-26-8-27-0
0-12-17-4-19-13-25-18-0
Cost: 378
0-22-28-3-20-29-21-16-2-32-0
0-18-4-19-13-25-14-0
0-27-1-8-26-7-23-24-6-0
0-11-5-9-30-10-15-37-17-12-0
Cost: 378
0-14-25-13-19-4-18-0
0-12-17-37-15-10-30-9-5-11-0
0-22-28-3-20-29-21-16-2-32-0
0-27-1-8-26-7-23-24-6-0
